NAME: tsp30_16
COMMENT: 30-tsp problem (Padberg/Rinaldi)
TYPE: TSP
DIMENSION: 30
EDGE_WEIGHT_TYPE : EUC_2D
NODE_COORD_SECTION
1 35 28
2 35 30
3 10 29
4 30 22
5 20 7
6 7 15
7 11 15
8 22 31
9 29 30
10 20 7
11 28 8
12 11 33
13 22 29
14 8 25
15 18 18
16 2 35
17 11 1
18 18 17
19 7 1
20 9 26
21 36 13
22 10 27
23 34 23
24 9 21
25 34 11
26 12 4
27 21 18
28 3 6
29 11 8
30 6 27
